p cnf 150 846
1 2 3 4 5 0
6 7 8 9 10 0
11 12 13 14 15 0
16 17 18 19 20 0
21 22 23 24 25 0
26 27 28 29 30 0
31 32 33 34 35 0
36 37 38 39 40 0
41 42 43 44 45 0
46 47 48 49 50 0
51 52 53 54 55 0
56 57 58 59 60 0
61 62 63 64 65 0
66 67 68 69 70 0
71 72 73 74 75 0
76 77 78 79 80 0
81 82 83 84 85 0
86 87 88 89 90 0
91 92 93 94 95 0
96 97 98 99 100 0
101 102 103 104 105 0
106 107 108 109 110 0
111 112 113 114 115 0
116 117 118 119 120 0
121 122 123 124 125 0
126 127 128 129 130 0
131 132 133 134 135 0
136 137 138 139 140 0
141 142 143 144 145 0
146 147 148 149 150 0
-1 -2 0
-1 -3 0
-1 -4 0
-1 -5 0
-2 -3 0
-2 -4 0
-2 -5 0
-3 -4 0
-3 -5 0
-4 -5 0
-6 -7 0
-6 -8 0
-6 -9 0
-6 -10 0
-7 -8 0
-7 -9 0
-7 -10 0
-8 -9 0
-8 -10 0
-9 -10 0
-11 -12 0
-11 -13 0
-11 -14 0
-11 -15 0
-12 -13 0
-12 -14 0
-12 -15 0
-13 -14 0
-13 -15 0
-14 -15 0
-16 -17 0
-16 -18 0
-16 -19 0
-16 -20 0
-17 -18 0
-17 -19 0
-17 -20 0
-18 -19 0
-18 -20 0
-19 -20 0
-21 -22 0
-21 -23 0
-21 -24 0
-21 -25 0
-22 -23 0
-22 -24 0
-22 -25 0
-23 -24 0
-23 -25 0
-24 -25 0
-26 -27 0
-26 -28 0
-26 -29 0
-26 -30 0
-27 -28 0
-27 -29 0
-27 -30 0
-28 -29 0
-28 -30 0
-29 -30 0
-31 -32 0
-31 -33 0
-31 -34 0
-31 -35 0
-32 -33 0
-32 -34 0
-32 -35 0
-33 -34 0
-33 -35 0
-34 -35 0
-36 -37 0
-36 -38 0
-36 -39 0
-36 -40 0
-37 -38 0
-37 -39 0
-37 -40 0
-38 -39 0
-38 -40 0
-39 -40 0
-41 -42 0
-41 -43 0
-41 -44 0
-41 -45 0
-42 -43 0
-42 -44 0
-42 -45 0
-43 -44 0
-43 -45 0
-44 -45 0
-46 -47 0
-46 -48 0
-46 -49 0
-46 -50 0
-47 -48 0
-47 -49 0
-47 -50 0
-48 -49 0
-48 -50 0
-49 -50 0
-51 -52 0
-51 -53 0
-51 -54 0
-51 -55 0
-52 -53 0
-52 -54 0
-52 -55 0
-53 -54 0
-53 -55 0
-54 -55 0
-56 -57 0
-56 -58 0
-56 -59 0
-56 -60 0
-57 -58 0
-57 -59 0
-57 -60 0
-58 -59 0
-58 -60 0
-59 -60 0
-61 -62 0
-61 -63 0
-61 -64 0
-61 -65 0
-62 -63 0
-62 -64 0
-62 -65 0
-63 -64 0
-63 -65 0
-64 -65 0
-66 -67 0
-66 -68 0
-66 -69 0
-66 -70 0
-67 -68 0
-67 -69 0
-67 -70 0
-68 -69 0
-68 -70 0
-69 -70 0
-71 -72 0
-71 -73 0
-71 -74 0
-71 -75 0
-72 -73 0
-72 -74 0
-72 -75 0
-73 -74 0
-73 -75 0
-74 -75 0
-76 -77 0
-76 -78 0
-76 -79 0
-76 -80 0
-77 -78 0
-77 -79 0
-77 -80 0
-78 -79 0
-78 -80 0
-79 -80 0
-81 -82 0
-81 -83 0
-81 -84 0
-81 -85 0
-82 -83 0
-82 -84 0
-82 -85 0
-83 -84 0
-83 -85 0
-84 -85 0
-86 -87 0
-86 -88 0
-86 -89 0
-86 -90 0
-87 -88 0
-87 -89 0
-87 -90 0
-88 -89 0
-88 -90 0
-89 -90 0
-91 -92 0
-91 -93 0
-91 -94 0
-91 -95 0
-92 -93 0
-92 -94 0
-92 -95 0
-93 -94 0
-93 -95 0
-94 -95 0
-96 -97 0
-96 -98 0
-96 -99 0
-96 -100 0
-97 -98 0
-97 -99 0
-97 -100 0
-98 -99 0
-98 -100 0
-99 -100 0
-101 -102 0
-101 -103 0
-101 -104 0
-101 -105 0
-102 -103 0
-102 -104 0
-102 -105 0
-103 -104 0
-103 -105 0
-104 -105 0
-106 -107 0
-106 -108 0
-106 -109 0
-106 -110 0
-107 -108 0
-107 -109 0
-107 -110 0
-108 -109 0
-108 -110 0
-109 -110 0
-111 -112 0
-111 -113 0
-111 -114 0
-111 -115 0
-112 -113 0
-112 -114 0
-112 -115 0
-113 -114 0
-113 -115 0
-114 -115 0
-116 -117 0
-116 -118 0
-116 -119 0
-116 -120 0
-117 -118 0
-117 -119 0
-117 -120 0
-118 -119 0
-118 -120 0
-119 -120 0
-121 -122 0
-121 -123 0
-121 -124 0
-121 -125 0
-122 -123 0
-122 -124 0
-122 -125 0
-123 -124 0
-123 -125 0
-124 -125 0
-126 -127 0
-126 -128 0
-126 -129 0
-126 -130 0
-127 -128 0
-127 -129 0
-127 -130 0
-128 -129 0
-128 -130 0
-129 -130 0
-131 -132 0
-131 -133 0
-131 -134 0
-131 -135 0
-132 -133 0
-132 -134 0
-132 -135 0
-133 -134 0
-133 -135 0
-134 -135 0
-136 -137 0
-136 -138 0
-136 -139 0
-136 -140 0
-137 -138 0
-137 -139 0
-137 -140 0
-138 -139 0
-138 -140 0
-139 -140 0
-141 -142 0
-141 -143 0
-141 -144 0
-141 -145 0
-142 -143 0
-142 -144 0
-142 -145 0
-143 -144 0
-143 -145 0
-144 -145 0
-146 -147 0
-146 -148 0
-146 -149 0
-146 -150 0
-147 -148 0
-147 -149 0
-147 -150 0
-148 -149 0
-148 -150 0
-149 -150 0
-2 -16 0
-1 -17 0
-4 -16 0
-3 -20 0
-5 -17 0
-3 -16 0
-2 -18 0
-5 -18 0
-5 -20 0
-3 -18 0
-2 -20 0
-2 -17 0
-4 -34 0
-2 -31 0
-4 -33 0
-5 -32 0
-1 -34 0
-2 -35 0
-3 -31 0
-4 -35 0
-4 -32 0
-2 -32 0
-5 -35 0
-4 -31 0
-2 -107 0
-4 -107 0
-3 -107 0
-4 -110 0
-1 -107 0
-5 -106 0
-3 -110 0
-1 -108 0
-4 -109 0
-2 -106 0
-5 -108 0
-1 -109 0
-2 -120 0
-1 -117 0
-3 -117 0
-4 -118 0
-4 -119 0
-1 -120 0
-5 -119 0
-5 -118 0
-5 -116 0
-5 -117 0
-2 -116 0
-5 -120 0
-6 -23 0
-8 -23 0
-6 -25 0
-6 -22 0
-9 -21 0
-7 -25 0
-7 -21 0
-9 -23 0
-7 -22 0
-10 -25 0
-7 -23 0
-10 -24 0
-7 -55 0
-7 -52 0
-8 -55 0
-9 -51 0
-9 -55 0
-9 -53 0
-8 -53 0
-10 -51 0
-6 -51 0
-6 -55 0
-10 -53 0
-6 -53 0
-6 -122 0
-8 -125 0
-6 -124 0
-10 -121 0
-6 -121 0
-6 -123 0
-7 -125 0
-7 -122 0
-9 -124 0
-9 -121 0
-10 -122 0
-9 -122 0
-12 -17 0
-13 -17 0
-14 -20 0
-11 -19 0
-15 -17 0
-14 -19 0
-14 -16 0
-12 -19 0
-13 -18 0
-15 -19 0
-11 -20 0
-12 -18 0
-13 -32 0
-11 -35 0
-15 -34 0
-14 -35 0
-15 -33 0
-12 -35 0
-13 -31 0
-15 -32 0
-14 -34 0
-14 -33 0
-11 -32 0
-12 -32 0
-14 -83 0
-12 -82 0
-11 -82 0
-15 -83 0
-11 -84 0
-12 -84 0
-15 -85 0
-12 -83 0
-14 -84 0
-11 -83 0
-13 -82 0
-11 -81 0
-13 -124 0
-13 -122 0
-12 -124 0
-14 -124 0
-15 -123 0
-14 -125 0
-12 -125 0
-11 -121 0
-12 -121 0
-13 -121 0
-11 -125 0
-14 -121 0
-24 -60 0
-24 -58 0
-21 -60 0
-23 -58 0
-22 -60 0
-24 -57 0
-25 -56 0
-25 -57 0
-23 -59 0
-21 -58 0
-22 -57 0
-23 -56 0
-24 -106 0
-22 -106 0
-25 -107 0
-22 -110 0
-21 -107 0
-21 -109 0
-23 -110 0
-25 -110 0
-23 -109 0
-24 -109 0
-21 -106 0
-23 -107 0
-30 -69 0
-27 -67 0
-29 -69 0
-26 -66 0
-29 -68 0
-27 -70 0
-29 -66 0
-28 -68 0
-27 -68 0
-30 -68 0
-28 -69 0
-28 -70 0
-26 -127 0
-27 -130 0
-29 -129 0
-28 -130 0
-30 -128 0
-29 -126 0
-26 -128 0
-30 -126 0
-30 -130 0
-28 -126 0
-30 -129 0
-26 -129 0
-35 -60 0
-35 -59 0
-32 -57 0
-31 -58 0
-34 -59 0
-31 -56 0
-34 -58 0
-35 -58 0
-32 -60 0
-34 -56 0
-32 -56 0
-34 -60 0
-35 -76 0
-33 -80 0
-35 -77 0
-32 -76 0
-33 -78 0
-31 -77 0
-32 -78 0
-35 -79 0
-34 -79 0
-32 -79 0
-31 -79 0
-34 -77 0
-38 -117 0
-36 -120 0
-37 -116 0
-37 -119 0
-38 -119 0
-38 -116 0
-38 -118 0
-37 -120 0
-40 -116 0
-36 -119 0
-36 -118 0
-38 -120 0
-45 -141 0
-42 -141 0
-42 -144 0
-41 -141 0
-42 -143 0
-44 -143 0
-45 -142 0
-44 -142 0
-45 -145 0
-44 -141 0
-42 -142 0
-45 -144 0
-47 -130 0
-50 -130 0
-49 -129 0
-46 -129 0
-49 -130 0
-46 -128 0
-48 -130 0
-49 -126 0
-50 -128 0
-46 -127 0
-47 -129 0
-48 -127 0
-47 -134 0
-46 -135 0
-50 -135 0
-47 -133 0
-49 -131 0
-49 -135 0
-48 -135 0
-49 -134 0
-47 -131 0
-48 -133 0
-48 -131 0
-50 -133 0
-55 -95 0
-54 -92 0
-51 -93 0
-55 -94 0
-51 -95 0
-51 -91 0
-53 -92 0
-55 -91 0
-54 -94 0
-51 -92 0
-54 -91 0
-52 -91 0
-55 -103 0
-55 -102 0
-52 -102 0
-54 -101 0
-53 -102 0
-55 -104 0
-52 -101 0
-54 -105 0
-51 -105 0
-53 -103 0
-53 -101 0
-54 -103 0
-56 -88 0
-56 -86 0
-56 -90 0
-59 -86 0
-60 -89 0
-57 -90 0
-58 -90 0
-58 -86 0
-57 -87 0
-59 -89 0
-58 -88 0
-60 -88 0
-58 -123 0
-59 -124 0
-57 -125 0
-59 -125 0
-57 -121 0
-58 -122 0
-60 -124 0
-60 -125 0
-59 -123 0
-57 -122 0
-60 -122 0
-59 -122 0
-60 -131 0
-58 -134 0
-57 -134 0
-56 -134 0
-59 -131 0
-59 -134 0
-58 -133 0
-59 -132 0
-57 -131 0
-58 -132 0
-59 -133 0
-59 -135 0
-64 -116 0
-63 -120 0
-65 -116 0
-63 -118 0
-65 -119 0
-64 -120 0
-63 -117 0
-62 -120 0
-62 -119 0
-65 -120 0
-61 -119 0
-63 -119 0
-67 -81 0
-67 -82 0
-67 -84 0
-66 -81 0
-68 -85 0
-69 -85 0
-70 -83 0
-67 -85 0
-66 -85 0
-66 -83 0
-68 -81 0
-70 -85 0
-68 -136 0
-66 -140 0
-69 -138 0
-70 -137 0
-70 -140 0
-68 -140 0
-67 -138 0
-66 -137 0
-67 -139 0
-68 -139 0
-70 -139 0
-70 -138 0
-68 -145 0
-68 -143 0
-70 -145 0
-66 -141 0
-70 -141 0
-67 -143 0
-66 -143 0
-66 -144 0
-70 -144 0
-69 -143 0
-67 -141 0
-66 -142 0
-73 -80 0
-74 -77 0
-73 -78 0
-73 -76 0
-72 -80 0
-74 -78 0
-75 -80 0
-72 -78 0
-72 -77 0
-74 -80 0
-72 -79 0
-71 -79 0
-73 -81 0
-75 -84 0
-72 -81 0
-71 -81 0
-75 -82 0
-74 -82 0
-75 -83 0
-72 -85 0
-74 -83 0
-71 -85 0
-71 -83 0
-75 -81 0
-75 -136 0
-75 -138 0
-73 -137 0
-73 -139 0
-72 -139 0
-72 -140 0
-75 -139 0
-71 -140 0
-72 -138 0
-75 -137 0
-74 -137 0
-72 -137 0
-72 -147 0
-73 -149 0
-71 -150 0
-71 -146 0
-75 -148 0
-74 -149 0
-73 -148 0
-71 -148 0
-73 -146 0
-72 -148 0
-75 -146 0
-71 -147 0
-83 -110 0
-83 -107 0
-82 -110 0
-84 -110 0
-85 -108 0
-85 -107 0
-81 -109 0
-84 -106 0
-82 -107 0
-84 -109 0
-83 -106 0
-82 -109 0
-84 -139 0
-83 -136 0
-84 -137 0
-81 -138 0
-81 -137 0
-83 -140 0
-85 -138 0
-82 -136 0
-81 -136 0
-81 -139 0
-83 -137 0
-84 -136 0
-86 -132 0
-87 -135 0
-87 -131 0
-90 -132 0
-90 -134 0
-89 -134 0
-87 -134 0
-86 -135 0
-90 -135 0
-86 -131 0
-87 -133 0
-86 -134 0
-91 -132 0
-95 -131 0
-93 -135 0
-95 -135 0
-92 -132 0
-95 -134 0
-94 -133 0
-91 -134 0
-93 -132 0
-94 -132 0
-92 -133 0
-95 -132 0
-99 -126 0
-100 -128 0
-97 -127 0
-96 -129 0
-99 -130 0
-97 -128 0
-100 -127 0
-100 -130 0
-96 -126 0
-100 -129 0
-99 -128 0
-96 -130 0
-105 -132 0
-101 -134 0
-104 -135 0
-105 -134 0
-102 -132 0
-103 -133 0
-104 -131 0
-103 -135 0
-103 -132 0
-101 -132 0
-101 -131 0
-104 -133 0
-102 -145 0
-105 -145 0
-102 -141 0
-105 -143 0
-104 -143 0
-103 -141 0
-102 -143 0
-101 -145 0
-103 -143 0
-104 -141 0
-101 -142 0
-102 -142 0
-114 -120 0
-111 -116 0
-115 -117 0
-115 -118 0
-115 -116 0
-113 -116 0
-111 -119 0
-112 -118 0
-112 -116 0
-114 -116 0
-111 -118 0
-114 -117 0
-140 -145 0
-139 -144 0
-138 -141 0
-136 -144 0
-136 -145 0
-138 -142 0
-140 -141 0
-138 -145 0
-136 -143 0
-139 -142 0
-140 -143 0
-137 -141 0
